c Result of efficient AIG-to-CNF conversion using package CNF
p cnf 38 96
-2 3 19 0
-2 -3 -19 0
2 -3 19 0
2 3 -19 0
-3 -4 -16 0
-3 4 16 0
3 4 -16 0
3 -4 16 0
-4 -5 -15 0
-4 5 15 0
4 5 -15 0
4 -5 15 0
-5 6 11 0
-5 -6 -11 0
5 -6 11 0
5 6 -11 0
-6 -7 -10 0
-6 7 10 0
6 7 -10 0
6 -7 10 0
-7 -8 -9 0
-7 8 9 0
7 8 -9 0
7 -8 9 0
8 -27 -35 0
-8 27 0
-8 35 0
9 -26 -32 0
-9 26 0
-9 32 0
10 -33 -36 0
-10 33 0
-10 36 0
-11 12 14 0
-11 13 14 0
-11 12 13 0
11 -12 -13 0
11 -13 -14 0
11 -12 -14 0
12 -32 -35 0
-12 32 0
-12 35 0
13 -26 -33 0
-13 26 0
-13 33 0
14 -30 -36 0
-14 30 0
-14 36 0
15 -30 -31 0
-15 30 0
-15 31 0
16 -14 17 -18 0
16 14 -17 -18 0
-16 18 0
-16 -14 -17 0
-16 14 17 0
-17 -12 -13 0
-17 12 13 0
17 12 -13 0
17 -12 13 0
18 -26 -30 -33 -35 0
-18 35 0
-18 26 0
-18 33 0
-18 30 0
-19 20 24 0
-19 -20 -24 0
19 -20 24 0
19 20 -24 0
-20 7 21 0
-20 -7 -21 0
20 -7 21 0
20 7 -21 0
-21 -22 -23 0
-21 22 23 0
21 22 -23 0
21 -22 23 0
-22 -10 -15 0
-22 10 15 0
22 10 -15 0
22 -10 15 0
23 -13 -14 0
-23 13 0
-23 14 0
-24 18 25 0
-24 12 18 0
-24 12 25 0
24 -12 -18 0
24 -18 -25 0
24 -12 -25 0
-25 -13 -14 0
-25 13 14 0
25 13 -14 0
25 -13 14 0
-38 0
2 0

